50 10503

310
419
261
162
49
131
101
182
440
111
212
67
323
348
64
324
229
280
479
479
351
59
427
233
19
66
394
368
116
235
481
463
398
342
325
187
99
316
411
223
182
277
192
211
308
379
498
103
323
172
